
set Period := 
1
2
3
4
5
6
7
8
9
10
11
12
;
set PeriodStandard := 
1
2
3
4
5
6
7
8
9
10
;
param: dp := 
1 24.0
2 72.0
3 23.0
4 52.0
5 28.0
6 24.0
7 35.0
8 30.0
9 44.0
10 33.0
11 1.0
12 1.0
;
param: TimeEnd := 
1 24.0
2 24.0
3 24.0
4 24.0
5 24.0
6 24.0
7 24.0
8 24.0
9 24.0
10 24.0
11 1.0
12 1.0
;